16 32
1 2 3
1 5 1
2 3 1
2 6 3
3 4 3
3 7 5
4 8 4
5 6 3
5 9 1
6 7 3
6 10 5
7 8 1
7 11 3
8 12 3
9 10 2
9 13 5
10 11 5
10 14 2
11 12 4
11 15 5
12 16 4
13 14 5
14 15 1
15 16 4
1 13 4
2 14 5
3 15 4
4 16 1
1 4 1
5 8 4
9 12 1
13 16 1
